300 1182 
1 5 1
1 7 1
1 9 1
1 16 1
1 18 1
1 19 1
1 21 1
1 23 1
1 36 1
1 38 1
1 40 1
1 53 1
1 69 1
1 70 1
1 84 1
1 85 1
1 98 1
1 104 1
1 114 1
1 133 1
1 146 1
1 149 1
1 156 1
1 167 1
1 169 1
1 180 1
1 186 1
1 197 1
1 211 1
1 215 1
1 227 1
1 258 1
1 267 1
1 271 1
1 274 1
2 5 1
2 6 1
2 7 1
2 8 1
2 9 1
2 10 1
2 11 1
2 12 1
2 13 1
2 16 1
2 22 1
2 25 1
2 32 1
2 42 1
2 43 1
2 57 1
2 60 1
2 61 1
2 66 1
2 68 1
2 71 1
2 72 1
2 77 1
2 79 1
2 91 1
2 96 1
2 99 1
2 101 1
2 102 1
2 106 1
2 125 1
2 127 1
2 130 1
2 134 1
2 136 1
2 152 1
2 159 1
2 161 1
2 170 1
2 172 1
2 176 1
2 193 1
2 202 1
2 204 1
2 213 1
2 227 1
2 232 1
2 234 1
2 235 1
2 237 1
2 297 1
3 5 1
3 6 1
3 8 1
3 11 1
3 19 1
3 57 1
3 116 1
3 124 1
3 132 1
3 145 1
3 167 1
3 170 1
3 189 1
3 190 1
3 196 1
3 211 1
3 263 1
3 265 1
3 274 1
3 280 1
4 5 1
4 6 1
4 7 1
4 10 1
4 14 1
4 15 1
4 37 1
4 38 1
4 46 1
4 50 1
4 59 1
4 80 1
4 87 1
4 88 1
4 106 1
4 108 1
4 109 1
4 116 1
4 122 1
4 128 1
4 135 1
4 137 1
4 143 1
4 150 1
4 156 1
4 162 1
4 186 1
4 191 1
4 225 1
4 233 1
4 247 1
4 270 1
4 281 1
4 295 1
5 6 1
5 7 1
5 8 1
5 18 1
5 19 1
5 22 1
5 26 1
5 31 1
5 32 1
5 33 1
5 36 1
5 37 1
5 39 1
5 40 1
5 43 1
5 47 1
5 54 1
5 63 1
5 73 1
5 99 1
5 146 1
5 156 1
5 157 1
5 177 1
5 195 1
5 198 1
5 202 1
5 208 1
5 219 1
5 224 1
5 245 1
5 250 1
5 252 1
5 255 1
5 267 1
5 276 1
6 8 1
6 9 1
6 11 1
6 12 1
6 13 1
6 14 1
6 17 1
6 20 1
6 27 1
6 36 1
6 54 1
6 83 1
6 122 1
6 124 1
6 134 1
6 135 1
6 155 1
6 201 1
6 212 1
7 9 1
7 17 1
7 18 1
7 19 1
7 25 1
7 28 1
7 48 1
7 57 1
7 63 1
7 76 1
7 79 1
7 103 1
7 108 1
7 114 1
7 131 1
7 163 1
7 164 1
7 175 1
7 184 1
7 185 1
7 205 1
7 234 1
7 248 1
7 254 1
7 259 1
7 266 1
7 289 1
7 300 1
8 10 1
8 14 1
8 31 1
8 37 1
8 80 1
8 82 1
8 107 1
8 112 1
8 133 1
8 143 1
8 183 1
8 201 1
8 249 1
8 255 1
8 286 1
9 10 1
9 11 1
9 12 1
9 13 1
9 16 1
9 23 1
9 25 1
9 30 1
9 32 1
9 52 1
9 56 1
9 60 1
9 65 1
9 74 1
9 79 1
9 86 1
9 97 1
9 134 1
9 139 1
9 159 1
9 161 1
9 210 1
9 235 1
9 236 1
9 261 1
9 270 1
9 274 1
9 294 1
10 13 1
10 16 1
10 17 1
10 24 1
10 29 1
10 31 1
10 42 1
10 50 1
10 66 1
10 78 1
10 100 1
10 103 1
10 119 1
10 128 1
10 140 1
10 153 1
10 189 1
10 214 1
10 251 1
10 264 1
10 298 1
11 12 1
11 15 1
11 24 1
11 26 1
11 30 1
11 48 1
11 53 1
11 77 1
11 89 1
11 92 1
11 130 1
11 145 1
11 224 1
11 239 1
11 253 1
12 14 1
12 15 1
12 20 1
12 21 1
12 22 1
12 27 1
12 28 1
12 30 1
12 33 1
12 34 1
12 35 1
12 38 1
12 41 1
12 42 1
12 48 1
12 52 1
12 54 1
12 56 1
12 58 1
12 66 1
12 67 1
12 68 1
12 75 1
12 79 1
12 86 1
12 87 1
12 89 1
12 91 1
12 104 1
12 111 1
12 113 1
12 128 1
12 138 1
12 139 1
12 140 1
12 146 1
12 158 1
12 159 1
12 166 1
12 167 1
12 171 1
12 172 1
12 176 1
12 181 1
12 187 1
12 196 1
12 204 1
12 220 1
12 252 1
12 268 1
12 297 1
12 299 1
13 18 1
13 22 1
13 35 1
13 37 1
13 43 1
13 44 1
13 72 1
13 106 1
13 118 1
13 121 1
13 123 1
13 134 1
13 179 1
13 215 1
13 229 1
13 265 1
13 283 1
13 288 1
13 290 1
14 15 1
14 28 1
14 31 1
14 34 1
14 40 1
14 41 1
14 58 1
14 65 1
14 69 1
14 72 1
14 89 1
14 93 1
14 137 1
14 178 1
14 179 1
14 183 1
14 223 1
14 247 1
14 259 1
15 17 1
15 20 1
15 21 1
15 26 1
15 46 1
15 48 1
15 62 1
15 63 1
15 76 1
15 81 1
15 84 1
15 99 1
15 103 1
15 112 1
15 141 1
15 142 1
15 153 1
15 154 1
15 157 1
15 164 1
15 165 1
15 168 1
15 173 1
15 207 1
15 211 1
15 214 1
15 221 1
15 230 1
15 240 1
15 241 1
15 279 1
15 284 1
16 34 1
16 45 1
16 81 1
16 131 1
16 285 1
17 32 1
17 39 1
17 61 1
17 70 1
17 72 1
17 85 1
17 100 1
17 115 1
17 147 1
17 151 1
17 186 1
17 216 1
17 271 1
18 20 1
18 21 1
18 23 1
18 25 1
18 27 1
18 41 1
18 55 1
18 62 1
18 64 1
18 69 1
18 70 1
18 73 1
18 87 1
18 94 1
18 112 1
18 113 1
18 115 1
18 155 1
18 179 1
18 181 1
18 184 1
18 188 1
18 192 1
18 198 1
18 199 1
18 200 1
18 215 1
18 244 1
18 247 1
18 276 1
18 299 1
19 27 1
19 55 1
19 62 1
19 90 1
19 97 1
19 113 1
19 220 1
19 243 1
20 33 1
20 35 1
20 45 1
20 47 1
20 60 1
20 78 1
20 118 1
20 121 1
20 181 1
20 199 1
21 23 1
21 45 1
21 60 1
21 76 1
21 78 1
21 95 1
21 104 1
22 24 1
22 26 1
22 29 1
22 39 1
22 46 1
22 62 1
22 92 1
22 142 1
22 148 1
22 155 1
22 157 1
22 165 1
22 211 1
22 291 1
23 24 1
23 45 1
23 49 1
23 82 1
23 88 1
23 225 1
23 259 1
24 29 1
24 54 1
24 73 1
24 75 1
24 82 1
24 90 1
24 125 1
24 147 1
24 151 1
24 158 1
24 171 1
24 191 1
24 201 1
24 208 1
24 213 1
24 217 1
24 242 1
24 258 1
24 261 1
24 273 1
24 280 1
25 29 1
25 44 1
25 51 1
25 59 1
25 64 1
25 117 1
25 174 1
25 226 1
25 288 1
26 33 1
26 38 1
26 44 1
26 99 1
26 137 1
26 216 1
26 245 1
26 254 1
26 260 1
26 266 1
27 52 1
27 58 1
27 61 1
27 64 1
27 108 1
27 118 1
27 161 1
27 272 1
27 299 1
28 153 1
29 34 1
29 47 1
29 74 1
29 85 1
29 113 1
29 148 1
29 152 1
29 243 1
29 250 1
29 297 1
30 35 1
30 53 1
30 95 1
30 130 1
30 163 1
30 166 1
30 197 1
30 232 1
30 269 1
30 275 1
31 58 1
31 67 1
31 83 1
31 239 1
32 36 1
32 55 1
32 138 1
32 170 1
32 188 1
32 209 1
32 223 1
32 255 1
33 59 1
33 65 1
33 81 1
33 111 1
33 139 1
33 149 1
33 177 1
33 182 1
33 212 1
33 220 1
33 251 1
34 41 1
34 49 1
34 251 1
35 46 1
35 47 1
35 55 1
35 64 1
35 97 1
35 135 1
35 141 1
35 154 1
35 254 1
35 279 1
35 286 1
36 44 1
36 84 1
36 101 1
36 110 1
36 121 1
36 178 1
36 262 1
36 264 1
36 268 1
37 42 1
37 43 1
37 51 1
37 85 1
37 86 1
37 100 1
37 132 1
37 145 1
37 147 1
37 177 1
37 223 1
37 236 1
37 253 1
37 270 1
38 39 1
38 40 1
38 49 1
38 91 1
38 92 1
38 102 1
38 109 1
38 123 1
38 129 1
38 205 1
38 228 1
38 265 1
38 266 1
39 51 1
39 110 1
39 144 1
39 197 1
39 205 1
39 230 1
39 262 1
39 287 1
39 295 1
40 84 1
40 88 1
40 93 1
40 231 1
40 273 1
41 78 1
41 93 1
41 98 1
41 102 1
41 124 1
41 126 1
41 142 1
41 150 1
41 178 1
41 191 1
41 200 1
41 290 1
42 50 1
42 52 1
42 56 1
42 67 1
42 98 1
42 100 1
42 140 1
42 151 1
42 165 1
42 216 1
42 253 1
42 296 1
43 70 1
43 117 1
45 101 1
45 122 1
45 291 1
46 49 1
46 53 1
46 66 1
46 74 1
46 80 1
46 94 1
46 109 1
46 111 1
46 115 1
46 186 1
46 208 1
46 210 1
46 232 1
46 234 1
46 245 1
46 264 1
46 271 1
46 276 1
46 277 1
46 288 1
47 51 1
47 63 1
47 67 1
47 74 1
47 107 1
47 160 1
47 173 1
47 181 1
47 202 1
47 203 1
47 213 1
47 230 1
47 277 1
48 117 1
48 189 1
48 195 1
48 216 1
49 50 1
49 61 1
49 68 1
49 73 1
49 90 1
49 107 1
49 110 1
49 138 1
49 148 1
49 173 1
49 187 1
49 254 1
49 300 1
51 65 1
51 77 1
51 86 1
51 94 1
51 119 1
51 130 1
51 195 1
52 56 1
52 68 1
52 83 1
52 105 1
52 203 1
52 232 1
52 273 1
53 59 1
53 75 1
53 132 1
53 149 1
53 221 1
54 57 1
54 77 1
54 96 1
54 120 1
54 144 1
54 150 1
54 162 1
54 182 1
54 192 1
54 203 1
54 237 1
54 260 1
54 282 1
54 289 1
55 80 1
55 90 1
55 144 1
55 164 1
56 97 1
56 129 1
56 166 1
56 168 1
56 174 1
56 231 1
56 234 1
57 103 1
57 118 1
57 176 1
57 194 1
57 251 1
58 233 1
58 239 1
58 287 1
58 291 1
59 69 1
59 71 1
59 87 1
59 111 1
59 125 1
59 160 1
59 185 1
59 194 1
59 213 1
59 276 1
59 293 1
60 203 1
60 263 1
61 71 1
61 101 1
61 116 1
62 158 1
62 185 1
62 220 1
62 229 1
62 298 1
63 75 1
63 89 1
63 95 1
63 106 1
63 116 1
63 126 1
63 161 1
63 188 1
63 226 1
64 157 1
64 170 1
64 185 1
64 204 1
65 105 1
65 120 1
65 249 1
66 154 1
67 104 1
67 120 1
67 133 1
67 179 1
67 280 1
68 71 1
68 115 1
68 123 1
68 141 1
68 146 1
68 198 1
68 280 1
69 207 1
70 121 1
71 105 1
71 160 1
71 209 1
71 217 1
71 257 1
71 275 1
71 294 1
72 81 1
72 82 1
72 117 1
72 177 1
72 210 1
72 214 1
72 282 1
73 88 1
74 135 1
75 76 1
75 126 1
75 209 1
75 242 1
75 271 1
75 299 1
76 127 1
76 197 1
76 242 1
76 285 1
76 286 1
77 231 1
78 91 1
78 218 1
80 83 1
80 93 1
80 94 1
80 96 1
80 98 1
80 119 1
80 152 1
80 180 1
80 190 1
80 287 1
81 102 1
81 171 1
81 244 1
81 272 1
82 151 1
82 182 1
82 229 1
83 120 1
83 150 1
83 247 1
83 277 1
83 283 1
84 159 1
85 105 1
85 131 1
85 133 1
85 212 1
85 282 1
86 92 1
86 164 1
86 256 1
86 290 1
87 128 1
88 127 1
88 131 1
88 183 1
88 201 1
88 278 1
88 284 1
89 96 1
89 112 1
89 205 1
90 114 1
90 129 1
90 291 1
91 109 1
91 123 1
91 154 1
91 171 1
91 174 1
91 225 1
91 228 1
91 246 1
92 95 1
92 108 1
92 132 1
92 172 1
92 208 1
94 122 1
94 180 1
94 226 1
94 298 1
95 136 1
95 152 1
95 160 1
95 190 1
95 295 1
96 217 1
96 219 1
97 124 1
97 226 1
97 231 1
97 235 1
97 238 1
97 240 1
97 277 1
98 119 1
98 173 1
98 187 1
99 129 1
99 136 1
99 145 1
99 169 1
99 206 1
99 219 1
99 257 1
99 293 1
100 114 1
100 139 1
100 272 1
100 283 1
100 292 1
101 110 1
101 262 1
101 269 1
101 282 1
102 166 1
102 290 1
103 107 1
104 193 1
104 217 1
106 178 1
107 143 1
107 202 1
107 264 1
107 294 1
108 137 1
108 172 1
109 125 1
109 140 1
109 206 1
109 257 1
109 289 1
110 141 1
110 168 1
110 169 1
111 278 1
112 138 1
112 153 1
112 163 1
112 184 1
112 189 1
112 218 1
113 246 1
113 289 1
114 156 1
114 215 1
114 292 1
115 163 1
115 279 1
116 126 1
116 155 1
116 165 1
116 193 1
116 200 1
116 237 1
116 256 1
116 284 1
117 210 1
117 241 1
119 127 1
119 158 1
120 136 1
120 162 1
120 224 1
120 238 1
121 222 1
122 246 1
122 281 1
123 168 1
124 175 1
125 270 1
126 180 1
126 241 1
126 249 1
127 142 1
127 149 1
127 221 1
127 224 1
127 227 1
127 230 1
127 236 1
127 284 1
129 267 1
129 293 1
131 148 1
131 228 1
131 240 1
132 283 1
133 225 1
133 235 1
133 244 1
133 281 1
134 143 1
134 194 1
135 193 1
135 195 1
137 162 1
137 209 1
137 260 1
138 144 1
138 183 1
138 256 1
139 184 1
139 222 1
139 272 1
140 176 1
140 190 1
140 239 1
142 167 1
143 147 1
143 187 1
143 192 1
143 204 1
143 238 1
143 258 1
145 246 1
146 207 1
147 259 1
147 262 1
148 273 1
148 278 1
154 191 1
154 198 1
154 222 1
154 263 1
155 175 1
156 196 1
157 192 1
157 250 1
158 248 1
159 243 1
160 199 1
161 237 1
161 242 1
162 169 1
162 199 1
162 256 1
162 266 1
162 279 1
162 292 1
165 257 1
165 285 1
166 245 1
166 258 1
167 174 1
167 175 1
168 194 1
170 182 1
170 287 1
175 206 1
178 188 1
178 275 1
181 212 1
182 218 1
182 240 1
183 274 1
184 222 1
184 268 1
185 200 1
185 298 1
187 255 1
188 267 1
189 228 1
189 263 1
193 196 1
193 229 1
193 244 1
193 300 1
194 206 1
194 219 1
194 296 1
195 233 1
195 278 1
197 241 1
198 214 1
199 207 1
200 223 1
201 218 1
202 261 1
203 260 1
205 265 1
208 221 1
208 293 1
212 253 1
212 297 1
213 248 1
213 249 1
214 296 1
215 236 1
215 296 1
218 227 1
222 243 1
224 252 1
226 233 1
226 281 1
227 275 1
228 269 1
229 269 1
235 238 1
235 261 1
235 295 1
236 250 1
241 248 1
242 252 1
244 268 1
244 285 1
257 294 1
279 286 1
280 288 1
283 292 1
293 300 1
